Optimal - objective value -100.95000000
      6 squad[7]                                   1                       0
      7 squad[8]                                   1                       0
     97 squad[218]                                 1                       0
    105 squad[72]                                  1                       0
    116 squad[84]                                  1                       0
    167 squad[137]                                 1                       0
    216 squad[226]                                 1                       0
    227 squad[237]                                 1                       0
    238 squad[249]                                 1                       0
    249 squad[260]                                 1                       0
    377 squad[387]                                 1                       0
    513 squad[530]                                 1                       0
    548 squad[565]                                 1                       0
    595 squad[612]                                 1                       0
    606 squad[623]                                 1                       0
    648 lineup[7]                                  1                    -9.8
    649 lineup[8]                                  1                    -9.2
    747 lineup[72]                                 1                    -8.3
    758 lineup[84]                                 1                      -6
    858 lineup[226]                                1                    -9.5
    869 lineup[237]                                1                    -8.8
    880 lineup[249]                                1                    -9.2
    891 lineup[260]                                1                    -8.2
   1019 lineup[387]                                1                    -7.2
   1190 lineup[565]                                1                      -7
   1237 lineup[612]                                1                      -7
   1290 captain[7]                                 1                    -9.8
   2142 vicecap[226]                               1                   -0.95
